min:+1new_variable;
-1new_variable+1pos_stability_deviation_1-1neg_stability_deviation_1-1stability+1target_stability<= +0;
-1new_variable-1pos_stability_deviation_1+1neg_stability_deviation_1+1stability-1target_stability<= 0;
-1new_variable+1pos_plasticity_deviation_1-1neg_plasticity_deviation_1-1plasticity+1target_plasticity<= +0;
-1new_variable-1pos_plasticity_deviation_1+1neg_plasticity_deviation_1+1plasticity-1target_plasticity<= 0;
-1new_variable-1pos_stability_deviation_1<= 0;
-1new_variable-1neg_stability_deviation_1<= 0;
-1new_variable-1pos_plasticity_deviation_1<= 0;
-1new_variable-1neg_plasticity_deviation_1<= 0;
-1new_variable+1pos_stability_deviation_2-1neg_stability_deviation_2-1stability+1target_stability<= +0;
-1new_variable-1pos_stability_deviation_2+1neg_stability_deviation_2+1stability-1target_stability<= 0;
-1new_variable+1pos_plasticity_deviation_2-1neg_plasticity_deviation_2-1plasticity+1target_plasticity<= +0;
-1new_variable-1pos_plasticity_deviation_2+1neg_plasticity_deviation_2+1plasticity-1target_plasticity<= 0;
-1new_variable-1pos_stability_deviation_2<= 0;
-1new_variable-1neg_stability_deviation_2<= 0;
-1new_variable-1pos_plasticity_deviation_2<= 0;
-1new_variable-1neg_plasticity_deviation_2<= 0;
-1new_variable+1pos_stability_deviation_3-1neg_stability_deviation_3-1stability+1target_stability<= +0;
-1new_variable-1pos_stability_deviation_3+1neg_stability_deviation_3+1stability-1target_stability<= 0;
-1new_variable+1pos_plasticity_deviation_3-1neg_plasticity_deviation_3-1plasticity+1target_plasticity<= +0;
-1new_variable-1pos_plasticity_deviation_3+1neg_plasticity_deviation_3+1plasticity-1target_plasticity<= 0;
-1new_variable-1pos_stability_deviation_3<= 0;
-1new_variable-1neg_stability_deviation_3<= 0;
-1new_variable-1pos_plasticity_deviation_3<= 0;
-1new_variable-1neg_plasticity_deviation_3<= 0;
new_variable >= 0;
